p cnf 382 754
c p distribution  0.01 0.99
c p distribution  0.01 0.01 0.98
c p distribution  0.04 0.92 0.04
c p distribution  0.9 0.09 0.01
c p distribution  0.98 0.01 0.01
c p distribution  0.3 0.6 0.1
c p distribution  0.1 0.85 0.05
c p distribution  0.05 0.4 0.55
c p distribution  0.9 0.09 0.01
c p distribution  0.05 0.2 0.75
c p distribution  0.01 0.99
c p distribution  0.7 0.3
c p distribution  0.05 0.95
c p distribution  0.1 0.9
c p distribution  0.98 0.01 0.01
c p distribution  0.95 0.04 0.01
c p distribution  0.3 0.69 0.01
c p distribution  0.8 0.19 0.01
c p distribution  0.95 0.04 0.01
c p distribution  0.01 0.29 0.7
c p distribution  0.1 0.9
c p distribution  0.1 0.9
c p distribution  0.05 0.95
c p distribution  0.97 0.01 0.01 0.01
c p distribution  0.05 0.95
c p distribution  0.9 0.1
c p distribution  0.01 0.99
c p distribution  0.05 0.9 0.05
c p distribution  0.01 0.09 0.9
c p distribution  0.98 0.01 0.01
c p distribution  0.3 0.4 0.3
c p distribution  0.4 0.59 0.01
c p distribution  0.3333333 0.3333333 0.3333333
c p distribution  0.01 0.98 0.01
c p distribution  0.3333333 0.3333333 0.3333333
c p distribution  0.01 0.98 0.01
c p distribution  0.2 0.8
c p distribution  0.1 0.9
c p distribution  0.92 0.03 0.05
c p distribution  0.04 0.96
c p distribution  0.95 0.04 0.01
c p distribution  0.01 0.09 0.9
c p distribution  0.98 0.01 0.01
c p distribution  0.05 0.9 0.05
c p distribution  0.05 0.95
c p distribution  0.97 0.01 0.01 0.01
c p distribution  0.5 0.48 0.01 0.01
c p distribution  0.6 0.38 0.01 0.01
c p distribution  0.05 0.9 0.05
c p distribution  0.01 0.19 0.8
c p distribution  0.05 0.9 0.05
c p distribution  0.95 0.04 0.01
c p distribution  0.97 0.01 0.01 0.01
c p distribution  0.05 0.25 0.25 0.45
c p distribution  0.2 0.75 0.04 0.01
c p distribution  0.01 0.29 0.3 0.4
c p distribution  0.01 0.9 0.08 0.01
c p distribution  0.01 0.3 0.49 0.2
c p distribution  0.01 0.15 0.25 0.59
c p distribution  0.2 0.7 0.09 0.01
c p distribution  0.01 0.01 0.38 0.6
c p distribution  0.1 0.84 0.05 0.01
c p distribution  0.4 0.58 0.01 0.01
c p distribution  0.01 0.99
c p distribution  1.0 0.0 0.0
c p distribution  0.95 0.04 0.01
c p distribution  0.99 0.01 0.0
c p distribution  0.01 0.01 0.98
c p distribution  0.98 0.01 0.01
c p distribution  0.69 0.3 0.01
c p distribution  0.1 0.9
c p distribution  0.95 0.05
c p distribution  0.01 0.99
c p distribution  0.98 0.01 0.01
c p distribution  0.5 0.49 0.01
c p distribution  0.95 0.04 0.01
c p distribution  0.05 0.9 0.05
c p distribution  0.98 0.01 0.01
c p distribution  0.3 0.4 0.3
c p distribution  0.97 0.01 0.01 0.01
c p distribution  0.03 0.95 0.01 0.01
c p distribution  0.01 0.94 0.04 0.01
c p distribution  0.01 0.88 0.1 0.01
c p distribution  0.97 0.01 0.01 0.01
c p distribution  0.3 0.68 0.01 0.01
c p distribution  0.95 0.03 0.01 0.01
c p distribution  0.5 0.48 0.01 0.01
c p distribution  0.4 0.58 0.01 0.01
c p distribution  0.05 0.93 0.01 0.01
c p distribution  0.97 0.01 0.01 0.01
278 -1 0
279 -2 0
280 -367 -3 0
281 -367 -4 0
282 -367 -5 0
280 -368 -3 0
281 -368 -4 0
282 -368 -5 0
280 -369 -6 0
281 -369 -7 0
282 -369 -8 0
280 -370 -9 0
281 -370 -10 0
282 -370 -11 0
283 -288 -364 -12 0
284 -288 -364 -13 0
285 -288 -364 -14 0
283 -288 -365 -12 0
284 -288 -365 -13 0
285 -288 -365 -14 0
283 -288 -366 -15 0
284 -288 -366 -16 0
285 -288 -366 -17 0
283 -289 -364 -12 0
284 -289 -364 -13 0
285 -289 -364 -14 0
283 -289 -365 -18 0
284 -289 -365 -19 0
285 -289 -365 -20 0
283 -289 -366 -21 0
284 -289 -366 -22 0
285 -289 -366 -23 0
283 -290 -364 -24 0
284 -290 -364 -25 0
285 -290 -364 -26 0
283 -290 -365 -27 0
284 -290 -365 -28 0
285 -290 -365 -29 0
283 -290 -366 -26 0
284 -290 -366 -25 0
285 -290 -366 -24 0
286 -280 -322 -356 -364 -30 0
287 -280 -322 -356 -364 -31 0
286 -280 -322 -356 -365 -30 0
287 -280 -322 -356 -365 -31 0
286 -280 -322 -356 -366 -32 0
287 -280 -322 -356 -366 -33 0
286 -280 -322 -357 -364 -30 0
287 -280 -322 -357 -364 -31 0
286 -280 -322 -357 -365 -34 0
287 -280 -322 -357 -365 -35 0
286 -280 -322 -357 -366 -32 0
287 -280 -322 -357 -366 -33 0
286 -280 -322 -358 -364 -30 0
287 -280 -322 -358 -364 -31 0
286 -280 -322 -358 -365 -34 0
287 -280 -322 -358 -365 -35 0
286 -280 -322 -358 -366 -35 0
287 -280 -322 -358 -366 -34 0
286 -280 -323 -356 -364 -30 0
287 -280 -323 -356 -364 -31 0
286 -280 -323 -356 -365 -34 0
287 -280 -323 -356 -365 -35 0
286 -280 -323 -356 -366 -32 0
287 -280 -323 -356 -366 -33 0
286 -280 -323 -357 -364 -30 0
287 -280 -323 -357 -364 -31 0
286 -280 -323 -357 -365 -34 0
287 -280 -323 -357 -365 -35 0
286 -280 -323 -357 -366 -35 0
287 -280 -323 -357 -366 -34 0
286 -280 -323 -358 -364 -34 0
287 -280 -323 -358 -364 -35 0
286 -280 -323 -358 -365 -34 0
287 -280 -323 -358 -365 -35 0
286 -280 -323 -358 -366 -35 0
287 -280 -323 -358 -366 -34 0
286 -281 -322 -356 -364 -30 0
287 -281 -322 -356 -364 -31 0
286 -281 -322 -356 -365 -30 0
287 -281 -322 -356 -365 -31 0
286 -281 -322 -356 -366 -32 0
287 -281 -322 -356 -366 -33 0
286 -281 -322 -357 -364 -30 0
287 -281 -322 -357 -364 -31 0
286 -281 -322 -357 -365 -34 0
287 -281 -322 -357 -365 -35 0
286 -281 -322 -357 -366 -32 0
287 -281 -322 -357 -366 -33 0
286 -281 -322 -358 -364 -30 0
287 -281 -322 -358 -364 -31 0
286 -281 -322 -358 -365 -34 0
287 -281 -322 -358 -365 -35 0
286 -281 -322 -358 -366 -31 0
287 -281 -322 -358 -366 -30 0
286 -281 -323 -356 -364 -30 0
287 -281 -323 -356 -364 -31 0
286 -281 -323 -356 -365 -34 0
287 -281 -323 -356 -365 -35 0
286 -281 -323 -356 -366 -32 0
287 -281 -323 -356 -366 -33 0
286 -281 -323 -357 -364 -30 0
287 -281 -323 -357 -364 -31 0
286 -281 -323 -357 -365 -34 0
287 -281 -323 -357 -365 -35 0
286 -281 -323 -357 -366 -31 0
287 -281 -323 -357 -366 -30 0
286 -281 -323 -358 -364 -34 0
287 -281 -323 -358 -364 -35 0
286 -281 -323 -358 -365 -34 0
287 -281 -323 -358 -365 -35 0
286 -281 -323 -358 -366 -31 0
287 -281 -323 -358 -366 -30 0
286 -282 -322 -356 -364 -30 0
287 -282 -322 -356 -364 -31 0
286 -282 -322 -356 -365 -30 0
287 -282 -322 -356 -365 -31 0
286 -282 -322 -356 -366 -36 0
287 -282 -322 -356 -366 -37 0
286 -282 -322 -357 -364 -30 0
287 -282 -322 -357 -364 -31 0
286 -282 -322 -357 -365 -30 0
287 -282 -322 -357 -365 -31 0
286 -282 -322 -357 -366 -36 0
287 -282 -322 -357 -366 -37 0
286 -282 -322 -358 -364 -30 0
287 -282 -322 -358 -364 -31 0
286 -282 -322 -358 -365 -30 0
287 -282 -322 -358 -365 -31 0
286 -282 -322 -358 -366 -33 0
287 -282 -322 -358 -366 -32 0
286 -282 -323 -356 -364 -30 0
287 -282 -323 -356 -364 -31 0
286 -282 -323 -356 -365 -30 0
287 -282 -323 -356 -365 -31 0
286 -282 -323 -356 -366 -36 0
287 -282 -323 -356 -366 -37 0
286 -282 -323 -357 -364 -30 0
287 -282 -323 -357 -364 -31 0
286 -282 -323 -357 -365 -30 0
287 -282 -323 -357 -365 -31 0
286 -282 -323 -357 -366 -33 0
287 -282 -323 -357 -366 -32 0
286 -282 -323 -358 -364 -30 0
287 -282 -323 -358 -364 -31 0
286 -282 -323 -358 -365 -30 0
287 -282 -323 -358 -365 -31 0
286 -282 -323 -358 -366 -33 0
287 -282 -323 -358 -366 -32 0
288 -308 -361 -38 0
289 -308 -361 -39 0
290 -308 -361 -40 0
288 -308 -362 -41 0
289 -308 -362 -42 0
290 -308 -362 -43 0
288 -308 -363 -44 0
289 -308 -363 -45 0
290 -308 -363 -46 0
288 -309 -361 -41 0
289 -309 -361 -42 0
290 -309 -361 -43 0
288 -309 -362 -42 0
289 -309 -362 -41 0
290 -309 -362 -43 0
288 -309 -363 -46 0
289 -309 -363 -44 0
290 -309 -363 -45 0
288 -310 -361 -47 0
289 -310 -361 -48 0
290 -310 -361 -49 0
288 -310 -362 -43 0
289 -310 -362 -42 0
290 -310 -362 -41 0
288 -310 -363 -39 0
289 -310 -363 -40 0
290 -310 -363 -38 0
291 -329 -50 0
292 -329 -51 0
293 -329 -52 0
291 -330 -51 0
292 -330 -50 0
293 -330 -52 0
291 -331 -53 0
292 -331 -54 0
293 -331 -55 0
294 -56 0
295 -57 0
296 -58 0
297 -59 0
298 -60 0
299 -61 0
300 -280 -371 -62 0
301 -280 -371 -63 0
302 -280 -371 -64 0
303 -280 -371 -65 0
300 -280 -372 -63 0
301 -280 -372 -64 0
302 -280 -372 -65 0
303 -280 -372 -62 0
300 -280 -373 -63 0
301 -280 -373 -64 0
302 -280 -373 -65 0
303 -280 -373 -62 0
300 -280 -374 -63 0
301 -280 -374 -64 0
302 -280 -374 -65 0
303 -280 -374 -62 0
300 -281 -371 -63 0
301 -281 -371 -64 0
302 -281 -371 -65 0
303 -281 -371 -62 0
300 -281 -372 -62 0
301 -281 -372 -63 0
302 -281 -372 -64 0
303 -281 -372 -65 0
300 -281 -373 -63 0
301 -281 -373 -64 0
302 -281 -373 -65 0
303 -281 -373 -62 0
300 -281 -374 -63 0
301 -281 -374 -64 0
302 -281 -374 -65 0
303 -281 -374 -62 0
300 -282 -371 -63 0
301 -282 -371 -64 0
302 -282 -371 -65 0
303 -282 -371 -62 0
300 -282 -372 -63 0
301 -282 -372 -64 0
302 -282 -372 -65 0
303 -282 -372 -62 0
300 -282 -373 -62 0
301 -282 -373 -63 0
302 -282 -373 -64 0
303 -282 -373 -65 0
300 -282 -374 -63 0
301 -282 -374 -64 0
302 -282 -374 -65 0
303 -282 -374 -62 0
304 -66 0
305 -67 0
306 -332 -68 0
307 -332 -69 0
306 -333 -70 0
307 -333 -71 0
308 -286 -72 0
309 -286 -73 0
310 -286 -74 0
308 -287 -75 0
309 -287 -76 0
310 -287 -77 0
311 -298 -308 -78 0
312 -298 -308 -79 0
313 -298 -308 -80 0
311 -298 -309 -81 0
312 -298 -309 -82 0
313 -298 -309 -83 0
311 -298 -310 -79 0
312 -298 -310 -80 0
313 -298 -310 -78 0
311 -299 -308 -84 0
312 -299 -308 -85 0
313 -299 -308 -86 0
311 -299 -309 -78 0
312 -299 -309 -79 0
313 -299 -309 -80 0
311 -299 -310 -79 0
312 -299 -310 -80 0
313 -299 -310 -78 0
314 -296 -308 -87 0
315 -296 -308 -88 0
316 -296 -308 -89 0
314 -296 -309 -87 0
315 -296 -309 -88 0
316 -296 -309 -89 0
314 -296 -310 -90 0
315 -296 -310 -91 0
316 -296 -310 -92 0
314 -297 -308 -87 0
315 -297 -308 -88 0
316 -297 -308 -89 0
314 -297 -309 -91 0
315 -297 -309 -90 0
316 -297 -309 -92 0
314 -297 -310 -90 0
315 -297 -310 -92 0
316 -297 -310 -91 0
317 -296 -308 -93 0
318 -296 -308 -94 0
319 -296 -308 -95 0
317 -296 -309 -93 0
318 -296 -309 -94 0
319 -296 -309 -95 0
317 -296 -310 -96 0
318 -296 -310 -97 0
319 -296 -310 -98 0
317 -297 -308 -93 0
318 -297 -308 -94 0
319 -297 -308 -95 0
317 -297 -309 -97 0
318 -297 -309 -96 0
319 -297 -309 -98 0
317 -297 -310 -96 0
318 -297 -310 -98 0
319 -297 -310 -97 0
320 -99 0
321 -100 0
322 -101 0
323 -102 0
324 -103 0
325 -104 0
326 -105 0
327 -106 0
328 -107 0
329 -320 -332 -108 0
330 -320 -332 -109 0
331 -320 -332 -110 0
329 -320 -333 -111 0
330 -320 -333 -112 0
331 -320 -333 -113 0
329 -321 -332 -114 0
330 -321 -332 -115 0
331 -321 -332 -116 0
329 -321 -333 -117 0
330 -321 -333 -118 0
331 -321 -333 -119 0
332 -120 0
333 -121 0
334 -324 -371 -122 0
335 -324 -371 -123 0
336 -324 -371 -124 0
337 -324 -371 -125 0
334 -324 -372 -123 0
335 -324 -372 -124 0
336 -324 -372 -125 0
337 -324 -372 -122 0
334 -324 -373 -126 0
335 -324 -373 -127 0
336 -324 -373 -128 0
337 -324 -373 -129 0
334 -324 -374 -123 0
335 -324 -374 -124 0
336 -324 -374 -125 0
337 -324 -374 -122 0
334 -325 -371 -123 0
335 -325 -371 -124 0
336 -325 -371 -125 0
337 -325 -371 -122 0
334 -325 -372 -122 0
335 -325 -372 -123 0
336 -325 -372 -124 0
337 -325 -372 -125 0
334 -325 -373 -126 0
335 -325 -373 -127 0
336 -325 -373 -128 0
337 -325 -373 -129 0
334 -325 -374 -123 0
335 -325 -374 -124 0
336 -325 -374 -125 0
337 -325 -374 -122 0
334 -326 -371 -123 0
335 -326 -371 -124 0
336 -326 -371 -125 0
337 -326 -371 -122 0
334 -326 -372 -130 0
335 -326 -372 -131 0
336 -326 -372 -132 0
337 -326 -372 -133 0
334 -326 -373 -122 0
335 -326 -373 -123 0
336 -326 -373 -124 0
337 -326 -373 -125 0
334 -326 -374 -123 0
335 -326 -374 -124 0
336 -326 -374 -125 0
337 -326 -374 -122 0
338 -134 0
339 -135 0
340 -136 0
341 -351 -137 0
342 -351 -138 0
343 -351 -139 0
341 -352 -140 0
342 -352 -141 0
343 -352 -142 0
344 -329 -143 0
345 -329 -144 0
346 -329 -145 0
344 -330 -144 0
345 -330 -143 0
346 -330 -145 0
344 -331 -145 0
345 -331 -144 0
346 -331 -143 0
347 -324 -327 -379 -146 0
348 -324 -327 -379 -147 0
349 -324 -327 -379 -148 0
350 -324 -327 -379 -149 0
347 -324 -327 -380 -150 0
348 -324 -327 -380 -151 0
349 -324 -327 -380 -152 0
350 -324 -327 -380 -153 0
347 -324 -327 -381 -146 0
348 -324 -327 -381 -147 0
349 -324 -327 -381 -148 0
350 -324 -327 -381 -149 0
347 -324 -327 -382 -154 0
348 -324 -327 -382 -155 0
349 -324 -327 -382 -156 0
350 -324 -327 -382 -157 0
347 -324 -328 -379 -147 0
348 -324 -328 -379 -148 0
349 -324 -328 -379 -149 0
350 -324 -328 -379 -146 0
347 -324 -328 -380 -158 0
348 -324 -328 -380 -159 0
349 -324 -328 -380 -160 0
350 -324 -328 -380 -161 0
347 -324 -328 -381 -147 0
348 -324 -328 -381 -148 0
349 -324 -328 -381 -149 0
350 -324 -328 -381 -146 0
347 -324 -328 -382 -162 0
348 -324 -328 -382 -163 0
349 -324 -328 -382 -164 0
350 -324 -328 -382 -165 0
347 -325 -327 -379 -166 0
348 -325 -327 -379 -167 0
349 -325 -327 -379 -168 0
350 -325 -327 -379 -169 0
347 -325 -327 -380 -170 0
348 -325 -327 -380 -171 0
349 -325 -327 -380 -172 0
350 -325 -327 -380 -173 0
347 -325 -327 -381 -147 0
348 -325 -327 -381 -148 0
349 -325 -327 -381 -149 0
350 -325 -327 -381 -146 0
347 -325 -327 -382 -174 0
348 -325 -327 -382 -175 0
349 -325 -327 -382 -176 0
350 -325 -327 -382 -177 0
347 -325 -328 -379 -146 0
348 -325 -328 -379 -147 0
349 -325 -328 -379 -148 0
350 -325 -328 -379 -149 0
347 -325 -328 -380 -162 0
348 -325 -328 -380 -165 0
349 -325 -328 -380 -164 0
350 -325 -328 -380 -163 0
347 -325 -328 -381 -146 0
348 -325 -328 -381 -147 0
349 -325 -328 -381 -148 0
350 -325 -328 -381 -149 0
347 -325 -328 -382 -178 0
348 -325 -328 -382 -179 0
349 -325 -328 -382 -180 0
350 -325 -328 -382 -181 0
347 -326 -327 -379 -162 0
348 -326 -327 -379 -165 0
349 -326 -327 -379 -164 0
350 -326 -327 -379 -163 0
347 -326 -327 -380 -146 0
348 -326 -327 -380 -147 0
349 -326 -327 -380 -148 0
350 -326 -327 -380 -149 0
347 -326 -327 -381 -147 0
348 -326 -327 -381 -148 0
349 -326 -327 -381 -149 0
350 -326 -327 -381 -146 0
347 -326 -327 -382 -146 0
348 -326 -327 -382 -147 0
349 -326 -327 -382 -148 0
350 -326 -327 -382 -149 0
347 -326 -328 -379 -182 0
348 -326 -328 -379 -183 0
349 -326 -328 -379 -184 0
350 -326 -328 -379 -185 0
347 -326 -328 -380 -147 0
348 -326 -328 -380 -148 0
349 -326 -328 -380 -149 0
350 -326 -328 -380 -146 0
347 -326 -328 -381 -186 0
348 -326 -328 -381 -187 0
349 -326 -328 -381 -188 0
350 -326 -328 -381 -189 0
347 -326 -328 -382 -147 0
348 -326 -328 -382 -148 0
349 -326 -328 -382 -149 0
350 -326 -328 -382 -146 0
351 -190 0
352 -191 0
353 -304 -367 -192 0
354 -304 -367 -193 0
355 -304 -367 -194 0
353 -304 -368 -195 0
354 -304 -368 -196 0
355 -304 -368 -197 0
353 -304 -369 -192 0
354 -304 -369 -193 0
355 -304 -369 -194 0
353 -304 -370 -197 0
354 -304 -370 -195 0
355 -304 -370 -196 0
353 -305 -367 -198 0
354 -305 -367 -199 0
355 -305 -367 -200 0
353 -305 -368 -195 0
354 -305 -368 -196 0
355 -305 -368 -197 0
353 -305 -369 -195 0
354 -305 -369 -196 0
355 -305 -369 -197 0
353 -305 -370 -201 0
354 -305 -370 -202 0
355 -305 -370 -203 0
356 -353 -359 -204 0
357 -353 -359 -205 0
358 -353 -359 -206 0
356 -353 -360 -204 0
357 -353 -360 -205 0
358 -353 -360 -206 0
356 -354 -359 -205 0
357 -354 -359 -206 0
358 -354 -359 -204 0
356 -354 -360 -204 0
357 -354 -360 -205 0
358 -354 -360 -206 0
356 -355 -359 -205 0
357 -355 -359 -206 0
358 -355 -359 -204 0
356 -355 -360 -207 0
357 -355 -360 -208 0
358 -355 -360 -209 0
359 -324 -351 -210 0
360 -324 -351 -211 0
359 -324 -352 -212 0
360 -324 -352 -213 0
359 -325 -351 -210 0
360 -325 -351 -211 0
359 -325 -352 -212 0
360 -325 -352 -213 0
359 -326 -351 -214 0
360 -326 -351 -215 0
359 -326 -352 -213 0
360 -326 -352 -212 0
361 -320 -332 -216 0
362 -320 -332 -217 0
363 -320 -332 -218 0
361 -320 -333 -219 0
362 -320 -333 -220 0
363 -320 -333 -221 0
361 -321 -332 -222 0
362 -321 -332 -223 0
363 -321 -332 -224 0
361 -321 -333 -225 0
362 -321 -333 -226 0
363 -321 -333 -227 0
364 -278 -228 0
365 -278 -229 0
366 -278 -230 0
364 -279 -231 0
365 -279 -232 0
366 -279 -233 0
367 -324 -371 -234 0
368 -324 -371 -235 0
369 -324 -371 -236 0
370 -324 -371 -237 0
367 -324 -372 -235 0
368 -324 -372 -236 0
369 -324 -372 -237 0
370 -324 -372 -234 0
367 -324 -373 -235 0
368 -324 -373 -236 0
369 -324 -373 -237 0
370 -324 -373 -234 0
367 -324 -374 -238 0
368 -324 -374 -239 0
369 -324 -374 -240 0
370 -324 -374 -241 0
367 -325 -371 -235 0
368 -325 -371 -236 0
369 -325 -371 -237 0
370 -325 -371 -234 0
367 -325 -372 -234 0
368 -325 -372 -235 0
369 -325 -372 -236 0
370 -325 -372 -237 0
367 -325 -373 -235 0
368 -325 -373 -236 0
369 -325 -373 -237 0
370 -325 -373 -234 0
367 -325 -374 -242 0
368 -325 -374 -243 0
369 -325 -374 -244 0
370 -325 -374 -245 0
367 -326 -371 -235 0
368 -326 -371 -236 0
369 -326 -371 -237 0
370 -326 -371 -234 0
367 -326 -372 -235 0
368 -326 -372 -236 0
369 -326 -372 -237 0
370 -326 -372 -234 0
367 -326 -373 -234 0
368 -326 -373 -235 0
369 -326 -373 -236 0
370 -326 -373 -237 0
367 -326 -374 -246 0
368 -326 -374 -247 0
369 -326 -374 -248 0
370 -326 -374 -249 0
371 -324 -327 -379 -250 0
372 -324 -327 -379 -251 0
373 -324 -327 -379 -252 0
374 -324 -327 -379 -253 0
371 -324 -327 -380 -250 0
372 -324 -327 -380 -251 0
373 -324 -327 -380 -252 0
374 -324 -327 -380 -253 0
371 -324 -327 -381 -250 0
372 -324 -327 -381 -251 0
373 -324 -327 -381 -252 0
374 -324 -327 -381 -253 0
371 -324 -327 -382 -250 0
372 -324 -327 -382 -251 0
373 -324 -327 -382 -252 0
374 -324 -327 -382 -253 0
371 -324 -328 -379 -254 0
372 -324 -328 -379 -255 0
373 -324 -328 -379 -256 0
374 -324 -328 -379 -257 0
371 -324 -328 -380 -258 0
372 -324 -328 -380 -259 0
373 -324 -328 -380 -260 0
374 -324 -328 -380 -261 0
371 -324 -328 -381 -251 0
372 -324 -328 -381 -252 0
373 -324 -328 -381 -253 0
374 -324 -328 -381 -250 0
371 -324 -328 -382 -251 0
372 -324 -328 -382 -252 0
373 -324 -328 -382 -253 0
374 -324 -328 -382 -250 0
371 -325 -327 -379 -258 0
372 -325 -327 -379 -259 0
373 -325 -327 -379 -260 0
374 -325 -327 -379 -261 0
371 -325 -327 -380 -250 0
372 -325 -327 -380 -251 0
373 -325 -327 -380 -252 0
374 -325 -327 -380 -253 0
371 -325 -327 -381 -251 0
372 -325 -327 -381 -252 0
373 -325 -327 -381 -253 0
374 -325 -327 -381 -250 0
371 -325 -327 -382 -250 0
372 -325 -327 -382 -251 0
373 -325 -327 -382 -252 0
374 -325 -327 -382 -253 0
371 -325 -328 -379 -250 0
372 -325 -328 -379 -251 0
373 -325 -328 -379 -252 0
374 -325 -328 -379 -253 0
371 -325 -328 -380 -262 0
372 -325 -328 -380 -263 0
373 -325 -328 -380 -264 0
374 -325 -328 -380 -265 0
371 -325 -328 -381 -250 0
372 -325 -328 -381 -251 0
373 -325 -328 -381 -252 0
374 -325 -328 -381 -253 0
371 -325 -328 -382 -251 0
372 -325 -328 -382 -252 0
373 -325 -328 -382 -253 0
374 -325 -328 -382 -250 0
371 -326 -327 -379 -266 0
372 -326 -327 -379 -267 0
373 -326 -327 -379 -268 0
374 -326 -327 -379 -269 0
371 -326 -327 -380 -250 0
372 -326 -327 -380 -251 0
373 -326 -327 -380 -252 0
374 -326 -327 -380 -253 0
371 -326 -327 -381 -251 0
372 -326 -327 -381 -252 0
373 -326 -327 -381 -253 0
374 -326 -327 -381 -250 0
371 -326 -327 -382 -250 0
372 -326 -327 -382 -251 0
373 -326 -327 -382 -252 0
374 -326 -327 -382 -253 0
371 -326 -328 -379 -250 0
372 -326 -328 -379 -251 0
373 -326 -328 -379 -252 0
374 -326 -328 -379 -253 0
371 -326 -328 -380 -254 0
372 -326 -328 -380 -255 0
373 -326 -328 -380 -256 0
374 -326 -328 -380 -257 0
371 -326 -328 -381 -250 0
372 -326 -328 -381 -251 0
373 -326 -328 -381 -252 0
374 -326 -328 -381 -253 0
371 -326 -328 -382 -251 0
372 -326 -328 -382 -252 0
373 -326 -328 -382 -253 0
374 -326 -328 -382 -250 0
375 -338 -270 0
376 -338 -271 0
377 -338 -272 0
378 -338 -273 0
375 -339 -270 0
376 -339 -272 0
377 -339 -273 0
378 -339 -271 0
375 -340 -270 0
376 -340 -272 0
377 -340 -273 0
378 -340 -271 0
379 -294 -375 -274 0
380 -294 -375 -275 0
381 -294 -375 -276 0
382 -294 -375 -277 0
379 -294 -376 -274 0
380 -294 -376 -275 0
381 -294 -376 -276 0
382 -294 -376 -277 0
379 -294 -377 -274 0
380 -294 -377 -275 0
381 -294 -377 -276 0
382 -294 -377 -277 0
379 -294 -378 -275 0
380 -294 -378 -276 0
381 -294 -378 -277 0
382 -294 -378 -274 0
379 -295 -375 -274 0
380 -295 -375 -275 0
381 -295 -375 -276 0
382 -295 -375 -277 0
379 -295 -376 -274 0
380 -295 -376 -275 0
381 -295 -376 -276 0
382 -295 -376 -277 0
379 -295 -377 -275 0
380 -295 -377 -276 0
381 -295 -377 -277 0
382 -295 -377 -274 0
379 -295 -378 -275 0
380 -295 -378 -276 0
381 -295 -378 -277 0
382 -295 -378 -274 0
-341 0
-342 0

